# Solution for model r5_t9_m0_9
# Finished Task: 9 / 9
# Makespan: 504.0, Total Distance: 195.0, Total Time: 2.1354
# R O S F
0 0 12 83.0 83.0
1 1 9 107.0 107.0
2 2 10 49.0 49.0
3 3 6 154.0 154.0
4 4 5 116.0 116.0
5 4 -1 384.0 415.0
6 3 11 339.0 378.0
7 1 -1 456.0 483.0
8 1 7 409.0 444.0
9 1 13 310.0 330.0
10 2 -1 483.0 504.0
11 3 -1 394.0 431.0
12 0 -1 275.0 310.0
13 1 8 378.0 409.0
